
Gurobi 8.0.1 (win64, Python) logging started 11/04/18 11:02:57

Academic license - for non-commercial use only
Changed value of parameter MIPFocus to 1
   Prev: 0  Min: 0  Max: 3  Default: 0
Optimize a model with 5893 rows, 15914 columns and 492564 nonzeros
Variable types: 0 continuous, 15914 integer (15914 binary)
Coefficient statistics:
  Matrix range     [1e+00, 1e+00]
  Objective range  [1e+00, 1e+01]
  Bounds range     [1e+00, 1e+00]
  RHS range        [1e+00, 2e+01]
Presolve removed 1938 rows and 3573 columns
Presolve time: 1.45s
Presolved: 3955 rows, 12341 columns, 380149 nonzeros
Variable types: 0 continuous, 12341 integer (12341 binary)

Root simplex log...

Iteration    Objective       Primal Inf.    Dual Inf.      Time
    8371    1.1579697e+03   3.430909e+04   0.000000e+00      5s
   14250    1.0699575e+03   3.476060e+03   0.000000e+00     10s
   15991    1.0700000e+03   0.000000e+00   0.000000e+00     12s

Root relaxation: objective 1.070000e+03, 15991 iterations, 9.84 seconds
Total elapsed time = 22.93s
Total elapsed time = 30.51s
Total elapsed time = 37.41s

    Nodes    |    Current Node    |     Objective Bounds      |     Work
 Expl Unexpl |  Obj  Depth IntInf | Incumbent    BestBd   Gap | It/Node Time

     0     0 1070.00000    0  606          - 1070.00000      -     -   42s
     0     0 1070.00000    0  780          - 1070.00000      -     -   51s
     0     0 1070.00000    0  746          - 1070.00000      -     -   52s
     0     0 1070.00000    0  693          - 1070.00000      -     -   79s
     0     0 1070.00000    0  712          - 1070.00000      -     -   80s
     0     0 1070.00000    0  720          - 1070.00000      -     -  130s
     0     0 1070.00000    0  807          - 1070.00000      -     -  131s
     0     0 1070.00000    0  671          - 1070.00000      -     -  182s
     0     0 1070.00000    0  735          - 1070.00000      -     -  184s
     0     0 1070.00000    0  759          - 1070.00000      -     -  373s
H    0     0                    1029.0000000 1070.00000  3.98%     -  506s
     0     2 1070.00000    0  759 1029.00000 1070.00000  3.98%     -  534s
H    1     4                    1032.0000000 1070.00000  3.68% 11166  703s
     3     8 1070.00000    2  909 1032.00000 1070.00000  3.68%  5437  706s
    19    24 1070.00000    4  839 1032.00000 1070.00000  3.68%  1712  720s
H   28    31                    1033.0000000 1070.00000  3.58%  1462  902s
    32    29 1070.00000    6  829 1033.00000 1070.00000  3.58%  1476  918s
    36    42 1070.00000    7  863 1033.00000 1070.00000  3.58%  1359  936s
    56    53 1070.00000   10  834 1033.00000 1070.00000  3.58%  1058  980s
    71    72 1070.00000   12  834 1033.00000 1070.00000  3.58%   962 1021s
H   96    72                    1034.0000000 1070.00000  3.48%   798 1021s
   307   300 1070.00000   48  717 1034.00000 1070.00000  3.48%   533 1043s
H  494   487                    1035.0000000 1070.00000  3.38%   485 1043s
   538   529 1070.00000   84  548 1035.00000 1070.00000  3.38%   483 1515s
H  539   530                    1035.5000000 1070.00000  3.33%   483 1515s
H  540   531                    1036.0000000 1070.00000  3.28%   482 1515s
   542   532 1070.00000   84  539 1036.00000 1070.00000  3.28%   483 1588s
H  568   532                    1036.5000000 1070.00000  3.23%   477 1588s
   650   644 1070.00000  103  489 1036.50000 1070.00000  3.23%   456 1752s
H  667    18                    1070.0000000 1070.00000  0.00%   453 1752s

Cutting planes:
  Clique: 65
  Zero half: 2

Explored 758 nodes (506102 simplex iterations) in 1752.30 seconds
Thread count was 8 (of 8 available processors)

Solution count 9: 1070 1036.5 1036 ... 1029

Optimal solution found (tolerance 1.00e-04)
Best objective 1.070000000000e+03, best bound 1.070000000000e+03, gap 0.0000%

Gurobi 8.0.1 (win64, Python) logging started 11/04/18 13:09:36

Academic license - for non-commercial use only
Changed value of parameter MIPFocus to 1
   Prev: 0  Min: 0  Max: 3  Default: 0
Optimize a model with 5893 rows, 15914 columns and 492706 nonzeros
Variable types: 0 continuous, 15914 integer (15914 binary)
Coefficient statistics:
  Matrix range     [1e+00, 1e+00]
  Objective range  [1e+00, 1e+01]
  Bounds range     [1e+00, 1e+00]
  RHS range        [1e+00, 2e+01]
Presolve removed 1935 rows and 3553 columns
Presolve time: 1.14s
Presolved: 3958 rows, 12361 columns, 381156 nonzeros
Variable types: 0 continuous, 12361 integer (12361 binary)

Root simplex log...

Iteration    Objective       Primal Inf.    Dual Inf.      Time
    9098    1.2421765e+03   2.144652e+05   0.000000e+00      5s
   17022    1.0889996e+03   1.904142e+04   0.000000e+00     10s
   22289    1.0699995e+03   9.658462e+02   0.000000e+00     15s
   24513    1.0700000e+03   0.000000e+00   0.000000e+00     17s

Root relaxation: objective 1.070000e+03, 24513 iterations, 15.87 seconds
Total elapsed time = 29.98s
Total elapsed time = 38.89s
Total elapsed time = 41.53s
Total elapsed time = 45.16s

    Nodes    |    Current Node    |     Objective Bounds      |     Work
 Expl Unexpl |  Obj  Depth IntInf | Incumbent    BestBd   Gap | It/Node Time

     0     0 1070.00000    0  596          - 1070.00000      -     -   47s
     0     0 1070.00000    0  807          - 1070.00000      -     -   55s
     0     0 1070.00000    0  752          - 1070.00000      -     -   55s
     0     0 1070.00000    0  637          - 1070.00000      -     -   92s
     0     0 1070.00000    0  744          - 1070.00000      -     -   93s
     0     0 1070.00000    0  661          - 1070.00000      -     -  125s
     0     0 1070.00000    0  700          - 1070.00000      -     -  126s
     0     0 1070.00000    0  529          - 1070.00000      -     -  163s
     0     0 1070.00000    0  753          - 1070.00000      -     -  165s
     0     0 1070.00000    0  657          - 1070.00000      -     -  372s
     0     2 1070.00000    0  657          - 1070.00000      -     -  564s
     1     4 1070.00000    1  854          - 1070.00000      - 12389  566s
    11    16 1070.00000    4  879          - 1070.00000      -  1916  571s
    23    22 1070.00000    7  831          - 1070.00000      -  1462  575s
    37    38 1070.00000   10  819          - 1070.00000      -  1080  580s
    64    65 1070.00000   15  857          - 1070.00000      -   806  587s
   135   136 1070.00000   27  911          - 1070.00000      -   593  597s
   236   238 1070.00000   52  886          - 1070.00000      -   471  606s
   307   307 1070.00000   70  905          - 1070.00000      -   485  618s
   416   418 1070.00000   94  884          - 1070.00000      -   435  628s
   518   518 1070.00000  115  858          - 1070.00000      -   420  638s
   625   627 1070.00000  139  886          - 1070.00000      -   401  648s
   730   730 1070.00000  164  888          - 1070.00000      -   395  662s
   845   846 1070.00000  185  878          - 1070.00000      -   384  673s
   946   948 1070.00000  208  855          - 1070.00000      -   385  687s
  1057  1056 1070.00000  234  876          - 1070.00000      -   380  700s
  1163  1164 1070.00000  258  828          - 1070.00000      -   380  713s
  1269  1268 1069.83333  280  896          - 1070.00000      -   389  730s
  1385  1384 1069.50000  307  885          - 1070.00000      -   390  746s
  1511  1511 1069.00000  338  857          - 1070.00000      -   388  763s
  1660  1657 1069.00000  379  818          - 1070.00000      -   382  783s
  1796  1794 1069.00000  417  791          - 1070.00000      -   382  804s
  1946  1945 1069.00000  461  784          - 1070.00000      -   383  831s
  2110  2108 1069.00000  509  784          - 1070.00000      -   392  848s
  2262  2259 1069.00000  555  771          - 1070.00000      -   405  867s
  2419  2417 1069.00000  596  755          - 1070.00000      -   417  888s
  2556  2554 1069.00000  629  776          - 1070.00000      -   429  910s
  2680  2678 1069.00000  662  769          - 1070.00000      -   436  937s
  2816  2814 1069.00000  695  724          - 1070.00000      -   454  962s
  2983  2981 1069.00000  746  631          - 1070.00000      -   455  988s
  3058  3056 1069.00000  778  652          - 1070.00000      -   456 1014s
  3230  3228 1069.00000  845  621          - 1070.00000      -   459 1043s
  3387  3385 1069.00000  878  600          - 1070.00000      -   467 1073s
  3533  3529 1069.00000  898  638          - 1070.00000      -   480 1105s
  3688  3682 1069.00000  924  563          - 1070.00000      -   489 1138s
  3842  3836 1069.00000  950  609          - 1070.00000      -   503 1172s
  3983  3978 1069.00000  975  600          - 1070.00000      -   516 1210s
  4056  4049 1069.00000  981  633          - 1070.00000      -   531 1248s
  4195  4190 1068.99966  998  911          - 1070.00000      -   544 1290s
  4367  4360 1068.50000 1038  808          - 1070.00000      -   554 1326s
  4531  4527 1068.50000 1090  757          - 1070.00000      -   570 1365s
  4701  4693 1067.00000 1137  807          - 1070.00000      -   581 1405s
  4860  4856 1066.86667 1192  720          - 1070.00000      -   597 1447s
  5021  5016 1066.62014 1256  715          - 1070.00000      -   613 1489s
  5213  5201 1070.00000  125  657          - 1070.00000      -   627 1516s
  5215  5202 1069.00000  712  710          - 1070.00000      -   627 1569s
  5216  5203 1070.00000  278  863          - 1070.00000      -   627 1572s
  5217  5204 1070.00000   64  825          - 1070.00000      -   627 1577s
  5218  5204 1068.50000  839  633          - 1070.00000      -   626 1608s
  5219  5205 1070.00000  130  719          - 1070.00000      -   626 1617s
  5220  5206 1070.00000  112  623          - 1070.00000      -   626 1650s
  5222  5207 1070.00000   93  724          - 1070.00000      -   626 1690s
  5223  5208 1066.50000 1252  762          - 1070.00000      -   626 1810s
  5224  5208 1067.50000  849  685          - 1070.00000      -   626 1841s
  5225  5209 1068.50000  481  685          - 1070.00000      -   626 2004s
  5226  5213 1070.00000   12  860          - 1070.00000      -  36.7 2034s
  5228  5216 1070.00000   13  853          - 1070.00000      -  37.1 2036s
  5240  5224 1070.00000   15  910          - 1070.00000      -  39.2 2040s
  5256  5227 1070.00000   17  876          - 1070.00000      -  41.7 2045s
  5278  5244 1070.00000   20  926          - 1070.00000      -  44.0 2054s
  5303  5262 1070.00000   22  873          - 1070.00000      -  47.0 2064s
  5377  5313 1070.00000   29  896          - 1070.00000      -  53.4 2078s
  5482  5381 1070.00000   41  869          - 1070.00000      -  60.6 2092s
  5575  5437 1070.00000   50  885          - 1070.00000      -  68.5 2105s
  5673  5509 1070.00000   60  885          - 1070.00000      -  75.2 2120s
  5779  5576 1070.00000   70  824          - 1070.00000      -  81.9 2133s
  5873  5639 1070.00000   81  807          - 1070.00000      -  89.8 2146s
  5931  5674 1070.00000   88  866          - 1070.00000      -  93.4 2161s
  5998  5720 1070.00000   97  849          - 1070.00000      -  97.3 2177s
  6117  5795 1070.00000  110  823          - 1070.00000      -   105 2195s
  6263  5891 1070.00000  127  817          - 1070.00000      -   113 2212s
  6412  5984 1070.00000  146  793          - 1070.00000      -   120 2230s
  6568  6092 1070.00000  164  791          - 1070.00000      -   128 2248s
  6706  6181 1070.00000  182  780          - 1070.00000      -   137 2267s
  6870  6283 1070.00000  200  755          - 1070.00000      -   144 2287s
  7065  6417 1070.00000  226  761          - 1070.00000      -   152 2307s
  7279  6557 1070.00000  254  709          - 1070.00000      -   159 2328s
  7533  6721 1070.00000  282  712          - 1070.00000      -   167 2348s
  7784  6884 1070.00000  311  640          - 1070.00000      -   174 2369s
  8007  7021 1070.00000  349  584          - 1070.00000      -   181 2390s
  8242  7181 1070.00000  387  422          - 1070.00000      -   189 2412s
  8481  7338 1070.00000  421  276          - 1070.00000      -   197 2436s
* 8560  7048             460    1065.5000000 1070.00000  0.42%   199 2436s
H 8800  6981                    1066.5000000 1070.00000  0.33%   204 2493s
  8840  6997 1070.00000  429  218 1066.50000 1070.00000  0.33%   207 2801s
H 8856  6753                    1067.0000000 1070.00000  0.28%   207 2801s
H 8908  3055                    1070.0000000 1070.00000  0.00%   209 2831s

Cutting planes:
  Clique: 28
  Flow cover: 2

Explored 9197 nodes (5417828 simplex iterations) in 2831.78 seconds
Thread count was 8 (of 8 available processors)

Solution count 4: 1070 1067 1066.5 1065.5 

Optimal solution found (tolerance 1.00e-04)
Best objective 1.070000000000e+03, best bound 1.070000000000e+03, gap 0.0000%

Gurobi 8.0.1 (win64, Python) logging started 11/05/18 13:40:23

Academic license - for non-commercial use only
Changed value of parameter MIPFocus to 1
   Prev: 0  Min: 0  Max: 3  Default: 0
Optimize a model with 5893 rows, 15914 columns and 492706 nonzeros
Variable types: 0 continuous, 15914 integer (15914 binary)
Coefficient statistics:
  Matrix range     [1e+00, 1e+00]
  Objective range  [1e+00, 1e+01]
  Bounds range     [1e+00, 1e+00]
  RHS range        [1e+00, 2e+01]
Presolve removed 1935 rows and 3553 columns
Presolve time: 1.19s
Presolved: 3958 rows, 12361 columns, 381156 nonzeros
Variable types: 0 continuous, 12361 integer (12361 binary)

Root simplex log...

Iteration    Objective       Primal Inf.    Dual Inf.      Time
    8927    1.2483377e+03   5.200491e+05   0.000000e+00      5s
   16749    1.0889996e+03   1.187271e+04   0.000000e+00     10s
   22119    1.0699995e+03   1.167628e+04   0.000000e+00     15s
   24513    1.0700000e+03   0.000000e+00   0.000000e+00     18s

Root relaxation: objective 1.070000e+03, 24513 iterations, 16.15 seconds
